(set-logic QF_BV)
(declare-fun _substvar_201_ () (_ BitVec 11))
(declare-fun _substvar_114_ () Bool)
(declare-fun _substvar_804_ () (_ BitVec 11))
(declare-fun _substvar_207_ () (_ BitVec 11))
(declare-fun _substvar_202_ () (_ BitVec 11))
(declare-fun _substvar_803_ () (_ BitVec 11))
(define-fun mask1 ((x (_ BitVec 11))) (_ BitVec 11) (ite _substvar_114_ (_ bv1792 11) (_ bv1920 11)))
(define-fun shlok ((x (_ BitVec 11)) (y (_ BitVec 11))) Bool (= (bvand x (mask1 (_ bv0 11))) (_ bv0 11)))
(assert (or false false false false false false false false false false false false false false false false (and true true true (= _substvar_804_ (bvadd _substvar_202_ _substvar_201_))) false false false false false false false))
(assert (or false false false false false false false false false false false false false false false false false false false false false false false false false false false false false false false false false false false false false (and true true true (= _substvar_803_ (_ bv0 11))) false false false false false false false false false false false false false false false false false false false false false false false false false false false false false false false false false false false false false false false false false false (and (shlok _substvar_804_ (_ bv0 11)) true true (= _substvar_803_ (bvadd _substvar_804_ _substvar_207_))) false false false false false false false false false false false false false false false false false false false false false false false false false false false false false false false false false false false false false false false false false false false))
(assert (or false false false false false (= (_ bv73 11) _substvar_207_) false (= (_ bv73 11) _substvar_803_) false false false))
(assert (or false false false false false (= (_ bv499 11) _substvar_207_) false (= (_ bv499 11) _substvar_803_) false false false))
(check-sat)
(exit)
